min: x0 + x1 + x2 + x3 + x4 + x5 + x6 + x7 + x8 + x9 + x10 + x11 + x12 + x13 + x14 + x15 + x16 + x17 + x18 + x19 + x20 + x21 + x22 + x23 + x24;
x4 + x8 + x11 + x13 + 2 x15 + x18 + x19 + x21 + 2 x23 >= 60;
x2 + x5 + 2 x6 + x9 + 2 x10 + x11 + 3 x14 + x16 + 2 x17 + x18 + 2 x19 + 3 x22 + 4 x24 >= 100;
x1 + 2 x3 + x5 + 3 x7 + x8 + 2 x9 + x10 + 4 x12 + 2 x13 + 3 x16 + 2 x17 + x18 + 5 x20 + 3 x21 + x22 + x23 >= 150;
10 x0 + 8 x1 + 7 x2 + 6 x3 + 6 x4 + 5 x5 + 5 x6 + 4 x7 + 4 x8 + 3 x9 + 3 x10 + 3 x11 + 2 x12 + 2 x13 + 2 x14 + 2 x15 + x16 + x17 + x18 + x19 >= 350;
int x0, x1, x2, x3, x4, x5, x6, x7, x8, x9, x10, x11, x12, x13, x14, x15, x16, x17, x18, x19, x20, x21, x22, x23, x24;